min: c;

c = 3.01583178362241 * u5_t4_h2 + 3.01583178362241 * u5_t7_h2 + 3.03868145449551 * u5_t4_h3 + 3.03868145449551 * u5_t7_h3 + 2.83388659415194 * u5_t1_h4 + 2.83388659415194 * u5_t3_h4 + 2.83388659415194 * u5_t4_h4 + 2.83388659415194 * u5_t7_h4 + 3.78669502342799 * u5_t1_h5 + 3.78669502342799 * u5_t3_h5 + 3.78669502342799 * u5_t4_h5 + 3.78669502342799 * u5_t7_h5 + 4.10825762654695 * u5_t1_h6 + 4.10825762654695 * u5_t3_h6 + 4.10825762654695 * u5_t4_h6 + 4.10825762654695 * u5_t6_h6 + 4.10825762654695 * u5_t7_h6 + 4.02906412699088 * u5_t1_h7 + 4.02906412699088 * u5_t3_h7 + 4.02906412699088 * u5_t4_h7 + 4.02906412699088 * u5_t6_h7 + 5.77380552009481 * u5_t1_h8 + 5.77380552009481 * u5_t3_h8 + 5.77380552009481 * u5_t4_h8 + 5.77380552009481 * u5_t6_h8 + 4.77899552064733 * u5_t1_h9 + 4.77899552064733 * u5_t3_h9 + 4.77899552064733 * u5_t4_h9 + 4.77899552064733 * u5_t6_h9 + 5.35831108741521 * u5_t1_h10 + 5.35831108741521 * u5_t3_h10 + 5.35831108741521 * u5_t4_h10 + 5.35831108741521 * u5_t6_h10 + 4.04064348070935 * u5_t1_h11 + 4.04064348070935 * u5_t3_h11 + 4.04064348070935 * u5_t4_h11 + 4.04064348070935 * u5_t6_h11 + 6.40107569855414 * u5_t1_h12 + 6.40107569855414 * u5_t3_h12 + 6.40107569855414 * u5_t4_h12 + 6.40107569855414 * u5_t6_h12 + 4.05515428870401 * u5_t1_h13 + 4.05515428870401 * u5_t3_h13 + 4.05515428870401 * u5_t4_h13 + 4.05515428870401 * u5_t6_h13 + 4.05515428870401 * u5_t8_h13 + 5.42523174130584 * u5_t1_h14 + 5.42523174130584 * u5_t3_h14 + 5.42523174130584 * u5_t4_h14 + 5.42523174130584 * u5_t6_h14 + 5.42523174130584 * u5_t8_h14 + 5.88957136110413 * u5_t1_h15 + 5.88957136110413 * u5_t3_h15 + 5.88957136110413 * u5_t4_h15 + 5.88957136110413 * u5_t6_h15 + 5.88957136110413 * u5_t8_h15 + 5.88957136110413 * u5_t9_h15 + 5.89286631222572 * u5_t1_h16 + 5.89286631222572 * u5_t3_h16 + 5.89286631222572 * u5_t4_h16 + 5.89286631222572 * u5_t5_h16 + 5.89286631222572 * u5_t6_h16 + 5.89286631222572 * u5_t8_h16 + 5.89286631222572 * u5_t9_h16 + 5.90087723282768 * u5_t1_h17 + 5.90087723282768 * u5_t5_h17 + 5.90087723282768 * u5_t6_h17 + 5.90087723282768 * u5_t8_h17 + 5.90087723282768 * u5_t9_h17 + 5.90087723282768 * u5_t10_h17 + 6.58618015741137 * u5_t1_h18 + 6.58618015741137 * u5_t2_h18 + 6.58618015741137 * u5_t5_h18 + 6.58618015741137 * u5_t6_h18 + 6.58618015741137 * u5_t9_h18 + 6.58618015741137 * u5_t10_h18 + 5.82673916352951 * u5_t1_h19 + 5.82673916352951 * u5_t2_h19 + 5.82673916352951 * u5_t5_h19 + 5.82673916352951 * u5_t9_h19 + 5.82673916352951 * u5_t10_h19 + 5.42485489027962 * u5_t1_h20 + 5.42485489027962 * u5_t2_h20 + 5.42485489027962 * u5_t5_h20 + 5.42485489027962 * u5_t9_h20 + 5.42485489027962 * u5_t10_h20 + 5.75288594312889 * u5_t2_h21 + 5.75288594312889 * u5_t5_h21 + 5.75288594312889 * u5_t9_h21 + 5.75288594312889 * u5_t10_h21 + 5.35163581119166 * u5_t2_h22 + 5.35163581119166 * u5_t5_h22 + 5.35163581119166 * u5_t9_h22 + 5.35163581119166 * u5_t10_h22 + 5.93089443298634 * u5_t5_h23 + 5.93089443298634 * u5_t9_h23 + 5.93089443298634 * u5_t10_h23;
0 <= u5_t1_h4 <= 1;
0 <= u5_t1_h5 <= 1;
0 <= u5_t1_h6 <= 1;
0 <= u5_t1_h7 <= 1;
0 <= u5_t1_h8 <= 1;
0 <= u5_t1_h9 <= 1;
0 <= u5_t1_h10 <= 1;
0 <= u5_t1_h11 <= 1;
0 <= u5_t1_h12 <= 1;
0 <= u5_t1_h13 <= 1;
0 <= u5_t1_h14 <= 1;
0 <= u5_t1_h15 <= 1;
0 <= u5_t1_h16 <= 1;
0 <= u5_t1_h17 <= 1;
0 <= u5_t1_h18 <= 1;
0 <= u5_t1_h19 <= 1;
0 <= u5_t1_h20 <= 1;
u5_t1_h4 + u5_t1_h5 + u5_t1_h6 + u5_t1_h7 + u5_t1_h8 + u5_t1_h9 + u5_t1_h10 + u5_t1_h11 + u5_t1_h12 + u5_t1_h13 + u5_t1_h14 + u5_t1_h15 + u5_t1_h16 + u5_t1_h17 + u5_t1_h18 + u5_t1_h19 + u5_t1_h20 = 1;
0 <= u5_t2_h18 <= 1;
0 <= u5_t2_h19 <= 1;
0 <= u5_t2_h20 <= 1;
0 <= u5_t2_h21 <= 1;
0 <= u5_t2_h22 <= 1;
u5_t2_h18 + u5_t2_h19 + u5_t2_h20 + u5_t2_h21 + u5_t2_h22 = 3;
0 <= u5_t3_h4 <= 1;
0 <= u5_t3_h5 <= 1;
0 <= u5_t3_h6 <= 1;
0 <= u5_t3_h7 <= 1;
0 <= u5_t3_h8 <= 1;
0 <= u5_t3_h9 <= 1;
0 <= u5_t3_h10 <= 1;
0 <= u5_t3_h11 <= 1;
0 <= u5_t3_h12 <= 1;
0 <= u5_t3_h13 <= 1;
0 <= u5_t3_h14 <= 1;
0 <= u5_t3_h15 <= 1;
0 <= u5_t3_h16 <= 1;
u5_t3_h4 + u5_t3_h5 + u5_t3_h6 + u5_t3_h7 + u5_t3_h8 + u5_t3_h9 + u5_t3_h10 + u5_t3_h11 + u5_t3_h12 + u5_t3_h13 + u5_t3_h14 + u5_t3_h15 + u5_t3_h16 = 1;
0 <= u5_t4_h2 <= 1;
0 <= u5_t4_h3 <= 1;
0 <= u5_t4_h4 <= 1;
0 <= u5_t4_h5 <= 1;
0 <= u5_t4_h6 <= 1;
0 <= u5_t4_h7 <= 1;
0 <= u5_t4_h8 <= 1;
0 <= u5_t4_h9 <= 1;
0 <= u5_t4_h10 <= 1;
0 <= u5_t4_h11 <= 1;
0 <= u5_t4_h12 <= 1;
0 <= u5_t4_h13 <= 1;
0 <= u5_t4_h14 <= 1;
0 <= u5_t4_h15 <= 1;
0 <= u5_t4_h16 <= 1;
u5_t4_h2 + u5_t4_h3 + u5_t4_h4 + u5_t4_h5 + u5_t4_h6 + u5_t4_h7 + u5_t4_h8 + u5_t4_h9 + u5_t4_h10 + u5_t4_h11 + u5_t4_h12 + u5_t4_h13 + u5_t4_h14 + u5_t4_h15 + u5_t4_h16 = 3;
0 <= u5_t5_h16 <= 1;
0 <= u5_t5_h17 <= 1;
0 <= u5_t5_h18 <= 1;
0 <= u5_t5_h19 <= 1;
0 <= u5_t5_h20 <= 1;
0 <= u5_t5_h21 <= 1;
0 <= u5_t5_h22 <= 1;
0 <= u5_t5_h23 <= 1;
u5_t5_h16 + u5_t5_h17 + u5_t5_h18 + u5_t5_h19 + u5_t5_h20 + u5_t5_h21 + u5_t5_h22 + u5_t5_h23 = 2;
0 <= u5_t6_h6 <= 1;
0 <= u5_t6_h7 <= 1;
0 <= u5_t6_h8 <= 1;
0 <= u5_t6_h9 <= 1;
0 <= u5_t6_h10 <= 1;
0 <= u5_t6_h11 <= 1;
0 <= u5_t6_h12 <= 1;
0 <= u5_t6_h13 <= 1;
0 <= u5_t6_h14 <= 1;
0 <= u5_t6_h15 <= 1;
0 <= u5_t6_h16 <= 1;
0 <= u5_t6_h17 <= 1;
0 <= u5_t6_h18 <= 1;
u5_t6_h6 + u5_t6_h7 + u5_t6_h8 + u5_t6_h9 + u5_t6_h10 + u5_t6_h11 + u5_t6_h12 + u5_t6_h13 + u5_t6_h14 + u5_t6_h15 + u5_t6_h16 + u5_t6_h17 + u5_t6_h18 = 2;
0 <= u5_t7_h2 <= 1;
0 <= u5_t7_h3 <= 1;
0 <= u5_t7_h4 <= 1;
0 <= u5_t7_h5 <= 1;
0 <= u5_t7_h6 <= 1;
u5_t7_h2 + u5_t7_h3 + u5_t7_h4 + u5_t7_h5 + u5_t7_h6 = 1;
0 <= u5_t8_h13 <= 1;
0 <= u5_t8_h14 <= 1;
0 <= u5_t8_h15 <= 1;
0 <= u5_t8_h16 <= 1;
0 <= u5_t8_h17 <= 1;
u5_t8_h13 + u5_t8_h14 + u5_t8_h15 + u5_t8_h16 + u5_t8_h17 = 3;
0 <= u5_t9_h15 <= 1;
0 <= u5_t9_h16 <= 1;
0 <= u5_t9_h17 <= 1;
0 <= u5_t9_h18 <= 1;
0 <= u5_t9_h19 <= 1;
0 <= u5_t9_h20 <= 1;
0 <= u5_t9_h21 <= 1;
0 <= u5_t9_h22 <= 1;
0 <= u5_t9_h23 <= 1;
u5_t9_h15 + u5_t9_h16 + u5_t9_h17 + u5_t9_h18 + u5_t9_h19 + u5_t9_h20 + u5_t9_h21 + u5_t9_h22 + u5_t9_h23 = 1;
0 <= u5_t10_h17 <= 1;
0 <= u5_t10_h18 <= 1;
0 <= u5_t10_h19 <= 1;
0 <= u5_t10_h20 <= 1;
0 <= u5_t10_h21 <= 1;
0 <= u5_t10_h22 <= 1;
0 <= u5_t10_h23 <= 1;
u5_t10_h17 + u5_t10_h18 + u5_t10_h19 + u5_t10_h20 + u5_t10_h21 + u5_t10_h22 + u5_t10_h23 = 1;
